\ENCODING=ISO-8859-1
\Problem name: ilog.cplex

Maximize
 obj: 720 x(0)#0 + 569 x(1)#1 + 832 x(2)#2 + 746 x(3)#3 + 601 x(4)#4
      + 863 x(5)#5 + 596 x(6)#6 + 1013 x(7)#7 + 736 x(8)#8 + 737 x(9)#9
      + 1062 x(10)#10 + 381 x(11)#11 + 1044 x(12)#12 + 605 x(13)#13
      + 970 x(14)#14 + 1177 x(15)#15 + 747 x(16)#16 + 842 x(17)#17
      + 875 x(18)#18 + 627 x(19)#19 + 839 x(20)#20 + 674 x(21)#21
      + 897 x(22)#22 + 876 x(23)#23 + 597 x(24)#24 + 649 x(25)#25
      + 1087 x(26)#26 + 752 x(27)#27 + 525 x(28)#28 + 754 x(29)#29
      + 692 x(30)#30 + 835 x(31)#31 + 436 x(32)#32 + 1183 x(33)#33
      + 369 x(34)#34 + 940 x(35)#35 + 654 x(36)#36 + 1090 x(37)#37
      + 780 x(38)#38 + 1045 x(39)#39 + 578 x(40)#40 + 896 x(41)#41
      + 1008 x(42)#42 + 798 x(43)#43 + 734 x(44)#44 + 987 x(45)#45
      + 694 x(46)#46 + 565 x(47)#47 + 809 x(48)#48 + 818 x(49)#49
      + 972 x(50)#50 + 887 x(51)#51 + 614 x(52)#52 + 930 x(53)#53
      + 694 x(54)#54 + 872 x(55)#55 + 712 x(56)#56 + 500 x(57)#57
      + 739 x(58)#58 + 831 x(59)#59 + 522 x(60)#60 + 1008 x(61)#61
      + 834 x(62)#62 + 734 x(63)#63 + 490 x(64)#64 + 924 x(65)#65
      + 422 x(66)#66 + 598 x(67)#67 + 499 x(68)#68 + 846 x(69)#69
      + 939 x(70)#70 + 797 x(71)#71 + 538 x(72)#72 + 656 x(73)#73
      + 931 x(74)#74 + 861 x(75)#75 + 784 x(76)#76 + 586 x(77)#77
      + 859 x(78)#78 + 620 x(79)#79 + 1055 x(80)#80 + 645 x(81)#81
      + 857 x(82)#82 + 623 x(83)#83 + 797 x(84)#84 + 643 x(85)#85
      + 566 x(86)#86 + 811 x(87)#87 + 819 x(88)#88 + 688 x(89)#89
      + 922 x(90)#90 + 1142 x(91)#91 + 902 x(92)#92 + 795 x(93)#93
      + 744 x(94)#94 + 754 x(95)#95 + 453 x(96)#96 + 427 x(97)#97
      + 839 x(98)#98 + 928 x(99)#99
Subject To
 c1: 921 x(0)#0 + 367 x(1)#1 + 638 x(2)#2 + 810 x(3)#3 + 166 x(4)#4
     + 650 x(5)#5 + 365 x(6)#6 + 974 x(7)#7 + 685 x(8)#8 + 545 x(9)#9
     + 962 x(10)#10 + 439 x(11)#11 + 12 x(12)#12 + 618 x(13)#13 + 255 x(14)#14
     + 835 x(15)#15 + 790 x(16)#16 + 963 x(17)#17 + 111 x(18)#18 + 200 x(19)#19
     + 999 x(20)#20 + 117 x(21)#21 + 615 x(22)#22 + 718 x(23)#23 + 297 x(24)#24
     + 399 x(25)#25 + 998 x(26)#26 + 579 x(27)#27 + 337 x(28)#28 + 977 x(29)#29
     + 828 x(30)#30 + 332 x(31)#31 + 769 x(32)#32 + 743 x(33)#33 + 595 x(34)#34
     + 452 x(35)#35 + 12 x(36)#36 + 577 x(37)#37 + 128 x(38)#38 + 535 x(39)#39
     + 60 x(40)#40 + 973 x(41)#41 + 808 x(42)#42 + 763 x(43)#43 + 915 x(44)#44
     + 492 x(45)#45 + 578 x(46)#46 + 699 x(47)#47 + 171 x(48)#48 + 796 x(49)#49
     + 393 x(50)#50 + 562 x(51)#51 + 798 x(52)#52 + 515 x(53)#53 + 22 x(54)#54
     + 282 x(55)#55 + 549 x(56)#56 + 430 x(57)#57 + 639 x(58)#58 + 802 x(59)#59
     + 145 x(60)#60 + 348 x(61)#61 + 865 x(62)#62 + 377 x(63)#63 + 658 x(64)#64
     + 663 x(65)#65 + 95 x(66)#66 + 341 x(67)#67 + 3 x(68)#68 + 508 x(69)#69
     + 912 x(70)#70 + 786 x(71)#71 + 946 x(72)#72 + 62 x(73)#73 + 593 x(74)#74
     + 619 x(75)#75 + 432 x(76)#76 + 510 x(77)#77 + 648 x(78)#78 + 378 x(79)#79
     + 989 x(80)#80 + 689 x(81)#81 + 20 x(82)#82 + 936 x(83)#83 + 537 x(84)#84
     + 823 x(85)#85 + 117 x(86)#86 + 971 x(87)#87 + 178 x(88)#88 + 111 x(89)#89
     + 607 x(90)#90 + 698 x(91)#91 + 865 x(92)#92 + 469 x(93)#93 + 622 x(94)#94
     + 497 x(95)#95 + 459 x(96)#96 + 318 x(97)#97 + 816 x(98)#98 + 581 x(99)#99
     <= 13688
 c2: 944 x(0)#0 + 169 x(1)#1 + 797 x(2)#2 + 999 x(3)#3 + 198 x(4)#4
     + 453 x(5)#5 + 743 x(6)#6 + 441 x(7)#7 + 954 x(8)#8 + 66 x(9)#9
     + 193 x(10)#10 + 66 x(11)#11 + 963 x(12)#12 + x(13)#13 + 201 x(14)#14
     + 425 x(15)#15 + 607 x(16)#16 + 211 x(17)#17 + 390 x(18)#18 + 402 x(19)#19
     + 971 x(20)#20 + 258 x(21)#21 + 240 x(22)#22 + 620 x(23)#23 + 163 x(24)#24
     + 17 x(25)#25 + 849 x(26)#26 + 310 x(27)#27 + 437 x(28)#28 + 397 x(29)#29
     + 31 x(30)#30 + 277 x(31)#31 + 349 x(32)#32 + 632 x(33)#33 + 447 x(34)#34
     + 831 x(35)#35 + 528 x(36)#36 + 978 x(37)#37 + 272 x(38)#38 + 732 x(39)#39
     + 882 x(40)#40 + 430 x(41)#41 + 525 x(42)#42 + 570 x(43)#43 + 62 x(44)#44
     + 285 x(45)#45 + 40 x(46)#46 + 437 x(47)#47 + 337 x(48)#48 + 421 x(49)#49
     + 71 x(50)#50 + 344 x(51)#51 + 261 x(52)#52 + 791 x(53)#53 + 232 x(54)#54
     + 990 x(55)#55 + 102 x(56)#56 + 91 x(57)#57 + 811 x(58)#58 + 119 x(59)#59
     + 335 x(60)#60 + 388 x(61)#61 + 140 x(62)#62 + 676 x(63)#63 + 58 x(64)#64
     + 387 x(65)#65 + 893 x(66)#66 + 697 x(67)#67 + 665 x(68)#68 + 500 x(69)#69
     + 790 x(70)#70 + 836 x(71)#71 + 247 x(72)#72 + 523 x(73)#73 + 860 x(74)#74
     + 922 x(75)#75 + 805 x(76)#76 + 660 x(77)#77 + 930 x(78)#78 + 756 x(79)#79
     + 686 x(80)#80 + 149 x(81)#81 + 369 x(82)#82 + 556 x(83)#83 + 938 x(84)#84
     + 285 x(85)#85 + 640 x(86)#86 + 538 x(87)#87 + 915 x(88)#88 + 433 x(89)#89
     + 981 x(90)#90 + 684 x(91)#91 + 681 x(92)#92 + 506 x(93)#93 + 831 x(94)#94
     + 25 x(95)#95 + 686 x(96)#96 + 264 x(97)#97 + 985 x(98)#98 + 397 x(99)#99
     <= 12495
 c3: 656 x(0)#0 + 916 x(1)#1 + 799 x(2)#2 + 634 x(3)#3 + 482 x(4)#4
     + 376 x(5)#5 + 157 x(6)#6 + 610 x(7)#7 + 265 x(8)#8 + 440 x(9)#9
     + 925 x(10)#10 + 166 x(11)#11 + 551 x(12)#12 + 669 x(13)#13 + 932 x(14)#14
     + 950 x(15)#15 + 906 x(16)#16 + 653 x(17)#17 + 113 x(18)#18 + 63 x(19)#19
     + 2 x(20)#20 + 900 x(21)#21 + 573 x(22)#22 + 454 x(23)#23 + 324 x(24)#24
     + 232 x(25)#25 + 456 x(26)#26 + 718 x(27)#27 + 409 x(28)#28 + 512 x(29)#29
     + 242 x(30)#30 + 259 x(31)#31 + 30 x(32)#32 + 618 x(33)#33 + 92 x(34)#34
     + 844 x(35)#35 + 418 x(36)#36 + 671 x(37)#37 + 354 x(38)#38 + 42 x(39)#39
     + 297 x(40)#40 + 503 x(41)#41 + 906 x(42)#42 + 596 x(43)#43 + 459 x(44)#44
     + 667 x(45)#45 + 689 x(46)#46 + 662 x(47)#47 + 388 x(48)#48 + 767 x(49)#49
     + 889 x(50)#50 + 437 x(51)#51 + 929 x(52)#52 + 227 x(53)#53 + 476 x(54)#54
     + 331 x(55)#55 + 127 x(56)#56 + 774 x(57)#57 + 959 x(58)#58 + 915 x(59)#59
     + 876 x(60)#60 + 258 x(61)#61 + 928 x(62)#62 + 459 x(63)#63 + 402 x(64)#64
     + 494 x(65)#65 + 358 x(66)#66 + 260 x(67)#67 + 127 x(68)#68 + 733 x(69)#69
     + 362 x(70)#70 + 851 x(71)#71 + 774 x(72)#72 + 457 x(73)#73 + 113 x(74)#74
     + 741 x(75)#75 + 179 x(76)#76 + 944 x(77)#77 + 238 x(78)#78 + 516 x(79)#79
     + 624 x(80)#80 + 530 x(81)#81 + 569 x(82)#82 + 140 x(83)#83 + 434 x(84)#84
     + 32 x(85)#85 + 626 x(86)#86 + 373 x(87)#87 + 275 x(88)#88 + 908 x(89)#89
     + 108 x(90)#90 + 614 x(91)#91 + 902 x(92)#92 + 743 x(93)#93 + 50 x(94)#94
     + 933 x(95)#95 + 173 x(96)#96 + 927 x(97)#97 + 643 x(98)#98 + 977 x(99)#99
     <= 13016
 c4: 242 x(0)#0 + 469 x(1)#1 + 604 x(2)#2 + 820 x(3)#3 + 655 x(4)#4
     + 944 x(5)#5 + 841 x(6)#6 + 369 x(7)#7 + 806 x(8)#8 + 715 x(9)#9
     + 460 x(10)#10 + 25 x(11)#11 + 407 x(12)#12 + 111 x(13)#13 + 881 x(14)#14
     + 653 x(15)#15 + 885 x(16)#16 + 345 x(17)#17 + 631 x(18)#18 + 395 x(19)#19
     + 431 x(20)#20 + 369 x(21)#21 + 31 x(22)#22 + 889 x(23)#23 + 936 x(24)#24
     + 855 x(25)#25 + 826 x(26)#26 + 306 x(27)#27 + 526 x(28)#28 + 102 x(29)#29
     + 284 x(30)#30 + 931 x(31)#31 + 402 x(32)#32 + 733 x(33)#33 + 410 x(34)#34
     + 493 x(35)#35 + 916 x(36)#36 + 562 x(37)#37 + 820 x(38)#38 + 856 x(39)#39
     + 140 x(40)#40 + 541 x(41)#41 + 675 x(42)#42 + 388 x(43)#43 + 544 x(44)#44
     + 406 x(45)#45 + 609 x(46)#46 + 599 x(47)#47 + 353 x(48)#48 + 542 x(49)#49
     + 611 x(50)#50 + 597 x(51)#51 + 116 x(52)#52 + 926 x(53)#53 + 984 x(54)#54
     + 114 x(55)#55 + 361 x(56)#56 + 362 x(57)#57 + 678 x(58)#58 + 121 x(59)#59
     + 893 x(60)#60 + 930 x(61)#61 + 49 x(62)#62 + 363 x(63)#63 + 344 x(64)#64
     + 726 x(65)#65 + 386 x(66)#66 + 30 x(67)#67 + 782 x(68)#68 + 479 x(69)#69
     + 65 x(70)#70 + 346 x(71)#71 + 150 x(72)#72 + 630 x(73)#73 + 947 x(74)#74
     + 29 x(75)#75 + 396 x(76)#76 + 342 x(77)#77 + 665 x(78)#78 + 602 x(79)#79
     + 543 x(80)#80 + 648 x(81)#81 + 662 x(82)#82 + 939 x(83)#83 + 865 x(84)#84
     + 842 x(85)#85 + 47 x(86)#86 + 739 x(87)#87 + 962 x(88)#88 + 911 x(89)#89
     + 544 x(90)#90 + 914 x(91)#91 + 331 x(92)#92 + 820 x(93)#93 + 762 x(94)#94
     + 351 x(95)#95 + 507 x(96)#96 + 296 x(97)#97 + 118 x(98)#98 + 119 x(99)#99
     <= 13419
 c5: 564 x(0)#0 + 825 x(1)#1 + 488 x(2)#2 + 360 x(3)#3 + 435 x(4)#4
     + 838 x(5)#5 + 316 x(6)#6 + 292 x(7)#7 + 642 x(8)#8 + 344 x(9)#9
     + 321 x(10)#10 + 662 x(11)#11 + 861 x(12)#12 + 567 x(13)#13 + 320 x(14)#14
     + 533 x(15)#15 + 463 x(16)#16 + 646 x(17)#17 + 659 x(18)#18 + 820 x(19)#19
     + 458 x(20)#20 + 799 x(21)#21 + 566 x(22)#22 + 837 x(23)#23 + 840 x(24)#24
     + 980 x(25)#25 + 607 x(26)#26 + 281 x(27)#27 + 732 x(28)#28 + 634 x(29)#29
     + 628 x(30)#30 + 833 x(31)#31 + 359 x(32)#32 + 758 x(33)#33 + 288 x(34)#34
     + 953 x(35)#35 + 68 x(36)#36 + 364 x(37)#37 + 29 x(38)#38 + 977 x(39)#39
     + 443 x(40)#40 + 868 x(41)#41 + 905 x(42)#42 + 315 x(43)#43 + 350 x(44)#44
     + 851 x(45)#45 + 633 x(46)#46 + 412 x(47)#47 + 781 x(48)#48 + 362 x(49)#49
     + 854 x(50)#50 + 179 x(51)#51 + 201 x(52)#52 + 433 x(53)#53 + 633 x(54)#54
     + 571 x(55)#55 + 43 x(56)#56 + 578 x(57)#57 + 359 x(58)#58 + 376 x(59)#59
     + 258 x(60)#60 + 885 x(61)#61 + 221 x(62)#62 + 698 x(63)#63 + 46 x(64)#64
     + 935 x(65)#65 + 331 x(66)#66 + 485 x(67)#67 + 752 x(68)#68 + 593 x(69)#69
     + 312 x(70)#70 + 573 x(71)#71 + 46 x(72)#72 + 329 x(73)#73 + 641 x(74)#74
     + 938 x(75)#75 + 448 x(76)#76 + 163 x(77)#77 + 857 x(78)#78 + 135 x(79)#79
     + 475 x(80)#80 + 278 x(81)#81 + 790 x(82)#82 + 481 x(83)#83 + 248 x(84)#84
     + 871 x(85)#85 + 73 x(86)#86 + 946 x(87)#87 + 44 x(88)#88 + 581 x(89)#89
     + 156 x(90)#90 + 628 x(91)#91 + 262 x(92)#92 + 769 x(93)#93 + 874 x(94)#94
     + 468 x(95)#95 + 290 x(96)#96 + 275 x(97)#97 + 71 x(98)#98 + 924 x(99)#99
     <= 13061
Bounds
 0 <= x(0)#0 <= 1
 0 <= x(1)#1 <= 1
 0 <= x(2)#2 <= 1
 0 <= x(3)#3 <= 1
 0 <= x(4)#4 <= 1
 0 <= x(5)#5 <= 1
 0 <= x(6)#6 <= 1
 0 <= x(7)#7 <= 1
 0 <= x(8)#8 <= 1
 0 <= x(9)#9 <= 1
 0 <= x(10)#10 <= 1
 0 <= x(11)#11 <= 1
 0 <= x(12)#12 <= 1
 0 <= x(13)#13 <= 1
 0 <= x(14)#14 <= 1
 0 <= x(15)#15 <= 1
 0 <= x(16)#16 <= 1
 0 <= x(17)#17 <= 1
 0 <= x(18)#18 <= 1
 0 <= x(19)#19 <= 1
 0 <= x(20)#20 <= 1
 0 <= x(21)#21 <= 1
 0 <= x(22)#22 <= 1
 0 <= x(23)#23 <= 1
 0 <= x(24)#24 <= 1
 0 <= x(25)#25 <= 1
 0 <= x(26)#26 <= 1
 0 <= x(27)#27 <= 1
 0 <= x(28)#28 <= 1
 0 <= x(29)#29 <= 1
 0 <= x(30)#30 <= 1
 0 <= x(31)#31 <= 1
 0 <= x(32)#32 <= 1
 0 <= x(33)#33 <= 1
 0 <= x(34)#34 <= 1
 0 <= x(35)#35 <= 1
 0 <= x(36)#36 <= 1
 0 <= x(37)#37 <= 1
 0 <= x(38)#38 <= 1
 0 <= x(39)#39 <= 1
 0 <= x(40)#40 <= 1
 0 <= x(41)#41 <= 1
 0 <= x(42)#42 <= 1
 0 <= x(43)#43 <= 1
 0 <= x(44)#44 <= 1
 0 <= x(45)#45 <= 1
 0 <= x(46)#46 <= 1
 0 <= x(47)#47 <= 1
 0 <= x(48)#48 <= 1
 0 <= x(49)#49 <= 1
 0 <= x(50)#50 <= 1
 0 <= x(51)#51 <= 1
 0 <= x(52)#52 <= 1
 0 <= x(53)#53 <= 1
 0 <= x(54)#54 <= 1
 0 <= x(55)#55 <= 1
 0 <= x(56)#56 <= 1
 0 <= x(57)#57 <= 1
 0 <= x(58)#58 <= 1
 0 <= x(59)#59 <= 1
 0 <= x(60)#60 <= 1
 0 <= x(61)#61 <= 1
 0 <= x(62)#62 <= 1
 0 <= x(63)#63 <= 1
 0 <= x(64)#64 <= 1
 0 <= x(65)#65 <= 1
 0 <= x(66)#66 <= 1
 0 <= x(67)#67 <= 1
 0 <= x(68)#68 <= 1
 0 <= x(69)#69 <= 1
 0 <= x(70)#70 <= 1
 0 <= x(71)#71 <= 1
 0 <= x(72)#72 <= 1
 0 <= x(73)#73 <= 1
 0 <= x(74)#74 <= 1
 0 <= x(75)#75 <= 1
 0 <= x(76)#76 <= 1
 0 <= x(77)#77 <= 1
 0 <= x(78)#78 <= 1
 0 <= x(79)#79 <= 1
 0 <= x(80)#80 <= 1
 0 <= x(81)#81 <= 1
 0 <= x(82)#82 <= 1
 0 <= x(83)#83 <= 1
 0 <= x(84)#84 <= 1
 0 <= x(85)#85 <= 1
 0 <= x(86)#86 <= 1
 0 <= x(87)#87 <= 1
 0 <= x(88)#88 <= 1
 0 <= x(89)#89 <= 1
 0 <= x(90)#90 <= 1
 0 <= x(91)#91 <= 1
 0 <= x(92)#92 <= 1
 0 <= x(93)#93 <= 1
 0 <= x(94)#94 <= 1
 0 <= x(95)#95 <= 1
 0 <= x(96)#96 <= 1
 0 <= x(97)#97 <= 1
 0 <= x(98)#98 <= 1
 0 <= x(99)#99 <= 1
Generals
 x(0)#0  x(1)#1  x(2)#2  x(3)#3  x(4)#4  x(5)#5  x(6)#6  x(7)#7  x(8)#8 
 x(9)#9  x(10)#10  x(11)#11  x(12)#12  x(13)#13  x(14)#14  x(15)#15  x(16)#16 
 x(17)#17  x(18)#18  x(19)#19  x(20)#20  x(21)#21  x(22)#22  x(23)#23 
 x(24)#24  x(25)#25  x(26)#26  x(27)#27  x(28)#28  x(29)#29  x(30)#30 
 x(31)#31  x(32)#32  x(33)#33  x(34)#34  x(35)#35  x(36)#36  x(37)#37 
 x(38)#38  x(39)#39  x(40)#40  x(41)#41  x(42)#42  x(43)#43  x(44)#44 
 x(45)#45  x(46)#46  x(47)#47  x(48)#48  x(49)#49  x(50)#50  x(51)#51 
 x(52)#52  x(53)#53  x(54)#54  x(55)#55  x(56)#56  x(57)#57  x(58)#58 
 x(59)#59  x(60)#60  x(61)#61  x(62)#62  x(63)#63  x(64)#64  x(65)#65 
 x(66)#66  x(67)#67  x(68)#68  x(69)#69  x(70)#70  x(71)#71  x(72)#72 
 x(73)#73  x(74)#74  x(75)#75  x(76)#76  x(77)#77  x(78)#78  x(79)#79 
 x(80)#80  x(81)#81  x(82)#82  x(83)#83  x(84)#84  x(85)#85  x(86)#86 
 x(87)#87  x(88)#88  x(89)#89  x(90)#90  x(91)#91  x(92)#92  x(93)#93 
 x(94)#94  x(95)#95  x(96)#96  x(97)#97  x(98)#98  x(99)#99 
End
